Geographic Exponential Decay
80 125 12 232 94 108 89 65 315 208 50 23 140 171 67 18 199 103 55 104 150 134 190 10 295 271 245 124 191 221 98 168 38 141 179 169 90 293 212 317 69 58 115 200 85 109 95 264 281 310 183 229 177 32 255 292 235 44 7 194 45 285 155 133 275 146 62 46 145 291 304 147 211 68 26 52 311 166 186 116 64
p edge 320 1297
e 0 5 1.0
e 1 74 12.0
e 1 217 2.0
e 1 119 11.0
e 2 289 1.0
e 3 240 5.0
e 3 96 1.0
e 4 293 28.0
e 6 253 11.0
e 6 178 6.0
e 6 284 2.0
e 7 150 82.0
e 7 124 80.0
e 7 174 53.0
e 7 207 48.0
e 7 52 83.0
e 7 272 1.0
e 7 285 28.0
e 7 181 35.0
e 7 110 85.0
e 7 304 46.0
e 7 229 55.0
e 7 12 45.0
e 7 94 35.0
e 7 104 12.0
e 7 45 43.0
e 7 222 62.0
e 7 135 78.0
e 8 32 3.0
e 8 90 40.0
e 9 59 1.0
e 10 263 58.0
e 10 259 8.0
e 10 313 17.0
e 10 210 4.0
e 10 300 28.0
e 10 225 27.0
e 10 3 86.0
e 10 283 65.0
e 10 240 69.0
e 10 87 58.0
e 10 279 75.0
e 10 229 77.0
e 10 258 50.0
e 10 297 99.0
e 10 266 55.0
e 10 82 80.0
e 10 170 28.0
e 11 304 97.0
e 12 275 19.0
e 12 225 36.0
e 12 65 91.0
e 12 190 82.0
e 12 17 56.0
e 12 168 93.0
e 12 272 70.0
e 12 40 31.0
e 12 202 63.0
e 12 211 80.0
e 12 23 14.0
e 12 60 62.0
e 12 230 92.0
e 12 175 28.0
e 12 142 5.0
e 12 18 35.0
e 13 242 6.0
e 13 68 71.0
e 14 160 1.0
e 15 219 2.0
e 15 186 32.0
e 16 293 94.0
e 18 272 47.0
e 18 163 8.0
e 18 142 65.0
e 18 44 54.0
e 18 32 26.0
e 18 295 71.0
e 18 102 17.0
e 18 98 56.0
e 18 10 34.0
e 18 209 72.0
e 18 200 30.0
e 18 199 17.0
e 18 117 51.0
e 18 267 31.0
e 18 244 19.0
e 18 260 23.0
e 19 223 5.0
e 19 184 2.0
e 20 26 79.0
e 21 50 36.0
e 21 304 87.0
e 22 60 4.0
e 22 292 14.0
e 22 105 22.0
e 22 154 9.0
e 22 153 21.0
e 23 9 25.0
e 23 79 78.0
e 23 242 58.0
e 23 117 69.0
e 23 216 54.0
e 23 20 56.0
e 23 148 48.0
e 23 256 86.0
e 23 131 38.0
e 23 58 33.0
e 23 162 15.0
e 23 186 41.0
e 23 191 74.0
e 23 266 86.0
e 23 157 89.0
e 23 68 56.0
e 24 128 1.0
e 25 50 52.0
e 26 17 19.0
e 26 167 56.0
e 26 260 53.0
e 26 245 21.0
e 26 230 35.0
e 26 132 94.0
e 26 192 8.0
e 26 303 50.0
e 26 201 6.0
e 26 12 62.0
e 26 179 3.0
e 26 279 98.0
e 26 58 52.0
e 26 241 43.0
e 26 155 32.0
e 26 87 46.0
e 27 40 2.0
e 27 158 1.0
e 28 151 2.0
e 29 118 4.0
e 29 36 4.0
e 30 154 1.0
e 31 137 3.0
e 32 60 25.0
e 32 250 83.0
e 32 55 87.0
e 32 251 99.0
e 32 304 2.0
e 32 231 100.0
e 32 138 80.0
e 32 245 34.0
e 32 246 75.0
e 32 290 99.0
e 32 264 11.0
e 32 94 55.0
e 32 61 5.0
e 32 10 47.0
e 32 249 48.0
e 33 95 83.0
e 34 219 1.0
e 34 266 10.0
e 35 114 2.0
e 35 126 10.0
e 35 130 8.0
e 36 80 1.0
e 37 225 4.0
e 38 282 86.0
e 38 149 49.0
e 38 216 69.0
e 38 5 4.0
e 38 101 44.0
e 38 103 35.0
e 38 3 88.0
e 38 134 68.0
e 38 49 89.0
e 38 6 54.0
e 38 65 21.0
e 38 205 92.0
e 38 212 62.0
e 38 96 100.0
e 38 145 79.0
e 38 147 72.0
e 38 213 65.0
e 39 265 2.0
e 41 87 1.0
e 41 23 21.0
e 42 166 30.0
e 42 196 1.0
e 42 10 16.0
e 43 299 1.0
e 44 81 99.0
e 44 254 2.0
e 44 282 67.0
e 44 275 87.0
e 44 309 66.0
e 44 97 20.0
e 44 1 8.0
e 44 287 99.0
e 44 202 16.0
e 44 147 22.0
e 44 82 10.0
e 44 313 73.0
e 44 178 79.0
e 44 219 89.0
e 44 203 16.0
e 44 297 56.0
e 45 79 61.0
e 45 102 71.0
e 45 0 12.0
e 45 54 73.0
e 45 294 22.0
e 45 27 20.0
e 45 279 80.0
e 45 67 5.0
e 45 14 65.0
e 45 56 6.0
e 45 57 73.0
e 45 1 57.0
e 45 118 8.0
e 45 129 18.0
e 45 185 34.0
e 45 299 54.0
e 46 109 29.0
e 46 105 28.0
e 46 194 57.0
e 46 198 60.0
e 46 151 40.0
e 46 174 24.0
e 46 240 31.0
e 46 298 71.0
e 46 195 93.0
e 46 215 51.0
e 46 234 34.0
e 46 172 61.0
e 46 67 86.0
e 46 35 31.0
e 46 188 8.0
e 46 270 11.0
e 46 249 75.0
e 47 174 5.0
e 47 66 2.0
e 48 122 2.0
e 49 318 10.0
e 49 85 69.0
e 50 300 21.0
e 50 114 83.0
e 50 103 2.0
e 50 54 34.0
e 50 27 66.0
e 50 135 26.0
e 50 121 72.0
e 50 287 83.0
e 50 213 30.0
e 50 137 2.0
e 50 106 67.0
e 50 171 92.0
e 50 276 40.0
e 50 61 54.0
e 50 234 49.0
e 51 306 1.0
e 51 265 5.0
e 52 224 32.0
e 52 28 86.0
e 52 8 61.0
e 52 234 78.0
e 52 257 36.0
e 52 177 33.0
e 52 258 87.0
e 52 66 98.0
e 52 1 38.0
e 52 145 17.0
e 52 127 97.0
e 52 302 29.0
e 52 128 21.0
e 52 110 76.0
e 52 150 56.0
e 52 294 77.0
e 53 189 3.0
e 53 58 84.0
e 55 113 95.0
e 55 209 96.0
e 55 308 51.0
e 55 211 11.0
e 55 176 93.0
e 55 162 77.0
e 55 34 38.0
e 55 124 55.0
e 55 228 41.0
e 55 42 62.0
e 55 89 34.0
e 55 173 46.0
e 55 318 10.0
e 55 40 83.0
e 55 2 48.0
e 55 63 57.0
e 56 258 5.0
e 58 184 58.0
e 58 259 77.0
e 58 68 86.0
e 58 19 56.0
e 58 281 16.0
e 58 89 88.0
e 58 291 39.0
e 58 113 68.0
e 58 164 54.0
e 58 2 74.0
e 58 310 70.0
e 58 79 53.0
e 58 117 58.0
e 58 156 22.0
e 62 63 93.0
e 62 180 89.0
e 62 102 83.0
e 62 52 87.0
e 62 196 18.0
e 62 140 99.0
e 62 141 57.0
e 62 315 27.0
e 62 89 44.0
e 62 137 27.0
e 62 245 25.0
e 62 189 83.0
e 62 167 83.0
e 62 76 75.0
e 62 190 46.0
e 62 175 79.0
e 62 45 12.0
e 64 218 21.0
e 64 185 3.0
e 64 16 49.0
e 64 288 24.0
e 64 39 58.0
e 64 246 27.0
e 64 8 32.0
e 64 69 46.0
e 64 280 59.0
e 64 282 55.0
e 64 68 12.0
e 64 235 27.0
e 64 139 31.0
e 64 4 94.0
e 64 195 37.0
e 64 40 86.0
e 64 318 24.0
e 65 263 96.0
e 65 123 36.0
e 65 262 8.0
e 65 253 40.0
e 65 199 23.0
e 65 287 94.0
e 65 304 68.0
e 65 9 63.0
e 65 102 84.0
e 65 277 93.0
e 65 101 17.0
e 65 32 59.0
e 65 313 29.0
e 65 274 58.0
e 65 116 50.0
e 67 152 27.0
e 67 203 11.0
e 67 116 15.0
e 67 200 13.0
e 67 180 85.0
e 67 61 59.0
e 67 211 23.0
e 67 122 70.0
e 67 276 55.0
e 67 94 63.0
e 67 9 35.0
e 67 182 2.0
e 67 78 70.0
e 67 128 97.0
e 67 68 33.0
e 68 106 4.0
e 68 31 95.0
e 68 294 77.0
e 68 234 44.0
e 68 207 26.0
e 68 66 69.0
e 68 81 82.0
e 68 69 38.0
e 68 249 42.0
e 68 175 73.0
e 68 47 53.0
e 68 163 75.0
e 69 204 51.0
e 69 214 80.0
e 69 176 89.0
e 69 207 68.0
e 69 21 38.0
e 69 12 44.0
e 69 57 7.0
e 69 268 51.0
e 69 54 55.0
e 69 122 44.0
e 69 136 56.0
e 69 237 69.0
e 69 238 73.0
e 69 312 23.0
e 69 121 21.0
e 70 75 2.0
e 70 264 70.0
e 71 222 19.0
e 72 154 1.0
e 72 172 5.0
e 73 294 3.0
e 76 212 52.0
e 76 28 1.0
e 77 244 1.0
e 77 252 4.0
e 80 276 2.0
e 83 136 1.0
e 84 148 2.0
e 84 284 2.0
e 85 171 88.0
e 85 150 4.0
e 85 207 9.0
e 85 118 82.0
e 85 119 10.0
e 85 89 45.0
e 85 244 78.0
e 85 108 51.0
e 85 103 4.0
e 85 21 90.0
e 85 208 37.0
e 85 242 57.0
e 85 289 33.0
e 85 277 88.0
e 85 50 1.0
e 85 245 15.0
e 86 286 11.0
e 86 79 1.0
e 88 214 1.0
e 88 167 1.0
e 89 63 17.0
e 89 182 60.0
e 89 230 48.0
e 89 205 85.0
e 89 275 25.0
e 89 104 51.0
e 89 68 78.0
e 89 155 96.0
e 89 151 43.0
e 89 208 60.0
e 89 260 8.0
e 89 48 46.0
e 89 198 57.0
e 90 221 59.0
e 90 258 22.0
e 90 24 5.0
e 90 125 59.0
e 90 232 32.0
e 90 285 42.0
e 90 11 97.0
e 90 162 19.0
e 90 257 47.0
e 90 290 7.0
e 90 106 38.0
e 90 243 34.0
e 90 192 88.0
e 90 32 75.0
e 90 194 35.0
e 90 167 44.0
e 91 268 12.0
e 92 313 2.0
e 93 113 2.0
e 93 241 1.0
e 94 86 74.0
e 94 186 91.0
e 94 53 25.0
e 94 235 3.0
e 94 110 58.0
e 94 157 16.0
e 94 208 5.0
e 94 268 41.0
e 94 315 62.0
e 94 146 99.0
e 94 185 44.0
e 94 218 60.0
e 94 54 24.0
e 94 124 37.0
e 95 208 83.0
e 95 307 7.0
e 95 254 54.0
e 95 277 37.0
e 95 268 76.0
e 95 97 85.0
e 95 238 77.0
e 95 279 88.0
e 95 210 43.0
e 95 105 7.0
e 95 308 62.0
e 95 188 84.0
e 95 269 58.0
e 95 118 30.0
e 95 78 92.0
e 95 123 77.0
e 98 109 35.0
e 98 112 79.0
e 98 40 87.0
e 98 13 96.0
e 98 262 90.0
e 98 191 39.0
e 98 158 66.0
e 98 193 77.0
e 98 125 31.0
e 98 271 77.0
e 98 44 47.0
e 98 58 62.0
e 98 15 68.0
e 98 28 67.0
e 98 186 25.0
e 98 135 10.0
e 99 132 1.0
e 99 250 5.0
e 100 137 1.0
e 103 11 30.0
e 103 277 15.0
e 103 200 12.0
e 103 310 6.0
e 103 18 54.0
e 103 224 9.0
e 103 179 60.0
e 103 169 44.0
e 103 100 47.0
e 103 202 48.0
e 103 309 70.0
e 103 293 17.0
e 103 227 72.0
e 103 170 60.0
e 104 301 97.0
e 104 68 35.0
e 104 48 56.0
e 104 216 22.0
e 104 208 23.0
e 104 136 36.0
e 104 244 99.0
e 104 29 64.0
e 104 245 82.0
e 104 265 99.0
e 104 283 50.0
e 104 137 84.0
e 104 268 99.0
e 104 139 72.0
e 104 235 75.0
e 107 279 6.0
e 108 188 78.0
e 108 160 25.0
e 108 298 39.0
e 108 3 29.0
e 108 173 76.0
e 108 241 75.0
e 108 34 59.0
e 108 268 77.0
e 108 4 97.0
e 108 149 77.0
e 108 38 21.0
e 108 93 25.0
e 108 223 45.0
e 108 73 47.0
e 108 120 86.0
e 108 99 28.0
e 109 193 8.0
e 109 150 35.0
e 109 303 48.0
e 109 144 85.0
e 109 149 24.0
e 109 155 14.0
e 109 139 71.0
e 109 153 24.0
e 109 73 67.0
e 109 61 93.0
e 109 178 57.0
e 109 225 58.0
e 109 147 52.0
e 109 143 23.0
e 109 241 45.0
e 111 19 1.0
e 111 49 6.0
e 112 243 3.0
e 114 12 64.0
e 114 152 20.0
e 114 151 5.0
e 115 140 45.0
e 115 66 57.0
e 115 120 49.0
e 115 260 76.0
e 115 191 49.0
e 115 42 4.0
e 115 131 44.0
e 115 235 78.0
e 115 172 82.0
e 115 193 31.0
e 115 267 7.0
e 115 2 45.0
e 115 92 51.0
e 115 132 46.0
e 115 27 7.0
e 115 108 22.0
e 115 261 37.0
e 116 41 33.0
e 116 25 17.0
e 116 190 11.0
e 116 11 100.0
e 116 179 85.0
e 116 176 3.0
e 116 168 3.0
e 116 44 51.0
e 116 37 71.0
e 116 49 31.0
e 116 159 67.0
e 116 59 90.0
e 116 18 56.0
e 116 73 89.0
e 116 29 25.0
e 121 56 1.0
e 123 91 3.0
e 124 160 85.0
e 124 302 70.0
e 124 261 70.0
e 124 48 74.0
e 124 97 53.0
e 124 116 6.0
e 124 212 19.0
e 124 112 40.0
e 124 5 85.0
e 124 4 92.0
e 124 168 96.0
e 124 147 43.0
e 124 248 97.0
e 124 57 5.0
e 125 297 6.0
e 125 177 64.0
e 125 165 87.0
e 125 105 95.0
e 125 46 58.0
e 125 130 44.0
e 125 152 16.0
e 125 59 99.0
e 125 75 74.0
e 125 269 34.0
e 125 0 24.0
e 125 278 72.0
e 125 238 33.0
e 125 239 100.0
e 125 136 23.0
e 129 29 4.0
e 133 33 73.0
e 133 13 59.0
e 133 199 27.0
e 133 31 85.0
e 133 97 59.0
e 133 22 26.0
e 133 115 23.0
e 133 129 46.0
e 133 152 53.0
e 133 130 99.0
e 133 313 95.0
e 133 291 58.0
e 133 246 48.0
e 133 239 10.0
e 133 18 14.0
e 133 196 42.0
e 133 190 79.0
e 134 83 22.0
e 134 67 96.0
e 134 219 33.0
e 134 68 33.0
e 134 248 45.0
e 134 253 92.0
e 134 210 1.0
e 134 208 87.0
e 134 312 86.0
e 134 300 93.0
e 134 75 71.0
e 134 212 54.0
e 134 284 34.0
e 134 69 20.0
e 134 314 71.0
e 134 23 26.0
e 138 43 6.0
e 140 25 87.0
e 140 33 42.0
e 140 310 16.0
e 140 269 77.0
e 140 138 2.0
e 140 238 32.0
e 140 293 39.0
e 140 168 50.0
e 140 148 18.0
e 140 180 78.0
e 140 111 29.0
e 140 74 94.0
e 140 209 15.0
e 140 311 85.0
e 140 53 62.0
e 141 74 1.0
e 141 220 98.0
e 141 52 80.0
e 141 312 45.0
e 141 135 25.0
e 141 69 78.0
e 141 156 52.0
e 141 95 72.0
e 141 274 17.0
e 141 53 35.0
e 141 272 86.0
e 141 308 100.0
e 141 32 65.0
e 141 265 30.0
e 141 148 21.0
e 141 250 85.0
e 143 278 5.0
e 145 287 64.0
e 145 224 37.0
e 145 253 50.0
e 145 277 18.0
e 145 20 51.0
e 145 69 7.0
e 145 168 61.0
e 145 33 65.0
e 145 283 71.0
e 145 0 93.0
e 145 304 99.0
e 145 249 100.0
e 145 14 83.0
e 145 149 88.0
e 145 206 98.0
e 146 217 23.0
e 146 58 46.0
e 146 276 88.0
e 146 43 86.0
e 146 195 70.0
e 146 284 91.0
e 146 315 94.0
e 146 129 99.0
e 146 263 8.0
e 146 254 17.0
e 146 24 53.0
e 146 296 31.0
e 146 166 69.0
e 146 114 3.0
e 146 41 17.0
e 146 153 2.0
e 147 112 26.0
e 147 105 9.0
e 147 262 38.0
e 147 225 19.0
e 147 277 23.0
e 147 26 1.0
e 147 85 95.0
e 147 188 51.0
e 147 168 53.0
e 147 264 40.0
e 147 5 32.0
e 147 203 6.0
e 147 293 98.0
e 149 257 8.0
e 150 71 62.0
e 150 267 1.0
e 150 252 94.0
e 150 294 62.0
e 150 226 86.0
e 150 16 54.0
e 150 245 96.0
e 150 220 95.0
e 150 257 15.0
e 150 34 20.0
e 150 57 50.0
e 150 15 55.0
e 150 179 83.0
e 155 261 24.0
e 155 301 65.0
e 155 52 74.0
e 155 30 79.0
e 155 212 66.0
e 155 256 23.0
e 155 6 7.0
e 155 185 49.0
e 155 208 91.0
e 155 177 19.0
e 155 43 100.0
e 155 22 5.0
e 155 87 31.0
e 155 31 60.0
e 161 259 2.0
e 161 84 3.0
e 162 148 50.0
e 162 312 11.0
e 162 314 44.0
e 162 299 38.0
e 162 42 1.0
e 162 212 24.0
e 163 202 11.0
e 164 143 3.0
e 166 292 64.0
e 166 26 71.0
e 166 316 94.0
e 166 141 67.0
e 166 129 94.0
e 166 309 95.0
e 166 163 80.0
e 166 6 69.0
e 166 266 47.0
e 166 286 24.0
e 166 201 40.0
e 166 67 13.0
e 166 271 75.0
e 166 223 98.0
e 166 108 86.0
e 168 30 54.0
e 168 76 32.0
e 168 35 22.0
e 168 264 38.0
e 168 111 24.0
e 168 216 66.0
e 168 77 24.0
e 168 127 52.0
e 168 215 58.0
e 168 58 20.0
e 168 226 64.0
e 169 299 20.0
e 169 83 99.0
e 169 166 15.0
e 169 62 34.0
e 169 44 56.0
e 169 185 9.0
e 169 25 44.0
e 169 63 67.0
e 169 30 6.0
e 169 239 97.0
e 169 168 1.0
e 169 220 26.0
e 169 281 45.0
e 169 208 38.0
e 169 116 52.0
e 169 132 20.0
e 171 194 16.0
e 171 138 87.0
e 171 70 63.0
e 171 35 99.0
e 171 212 90.0
e 171 210 85.0
e 171 184 91.0
e 171 226 28.0
e 171 249 29.0
e 171 186 45.0
e 171 250 100.0
e 171 214 22.0
e 171 36 29.0
e 171 96 87.0
e 171 164 80.0
e 177 181 3.0
e 177 173 41.0
e 177 183 24.0
e 177 59 87.0
e 177 153 70.0
e 177 45 15.0
e 177 147 22.0
e 177 243 52.0
e 177 303 36.0
e 177 214 53.0
e 177 251 62.0
e 177 193 8.0
e 177 242 46.0
e 177 231 9.0
e 179 306 76.0
e 179 131 14.0
e 179 264 84.0
e 179 138 91.0
e 179 36 52.0
e 179 291 32.0
e 179 7 56.0
e 179 46 43.0
e 179 47 40.0
e 179 216 22.0
e 179 37 50.0
e 179 127 18.0
e 179 123 94.0
e 181 243 2.0
e 183 278 3.0
e 183 38 54.0
e 183 150 86.0
e 183 70 48.0
e 183 275 67.0
e 183 266 8.0
e 183 250 86.0
e 183 285 31.0
e 183 63 14.0
e 183 124 71.0
e 183 273 28.0
e 183 7 96.0
e 183 261 70.0
e 183 90 36.0
e 183 8 38.0
e 183 119 83.0
e 186 211 100.0
e 186 245 95.0
e 186 249 95.0
e 186 126 29.0
e 186 181 74.0
e 186 13 74.0
e 186 114 92.0
e 186 39 93.0
e 186 36 10.0
e 186 37 47.0
e 186 7 91.0
e 186 224 92.0
e 187 116 44.0
e 190 150 25.0
e 190 176 98.0
e 190 156 70.0
e 190 19 79.0
e 190 292 39.0
e 190 266 55.0
e 190 14 87.0
e 190 296 32.0
e 190 15 24.0
e 190 49 26.0
e 190 267 71.0
e 190 46 23.0
e 190 269 40.0
e 191 259 1.0
e 191 103 83.0
e 191 236 86.0
e 191 295 8.0
e 191 145 32.0
e 191 190 33.0
e 191 144 33.0
e 191 270 39.0
e 191 308 75.0
e 191 233 19.0
e 191 301 42.0
e 191 315 55.0
e 191 192 14.0
e 191 90 43.0
e 194 139 65.0
e 194 291 13.0
e 194 79 77.0
e 194 150 79.0
e 194 62 20.0
e 194 60 68.0
e 194 288 58.0
e 194 120 89.0
e 194 203 90.0
e 194 125 88.0
e 194 197 58.0
e 194 16 77.0
e 194 245 50.0
e 194 208 11.0
e 197 172 3.0
e 197 38 31.0
e 199 39 76.0
e 199 208 66.0
e 199 285 21.0
e 199 273 43.0
e 199 17 71.0
e 199 67 97.0
e 199 282 66.0
e 199 45 51.0
e 199 301 16.0
e 199 110 61.0
e 199 143 59.0
e 199 255 36.0
e 199 311 79.0
e 199 70 86.0
e 200 41 10.0
e 200 245 49.0
e 200 90 73.0
e 200 270 55.0
e 200 91 91.0
e 200 251 86.0
e 200 154 8.0
e 200 203 35.0
e 200 264 57.0
e 200 26 63.0
e 200 222 26.0
e 200 141 19.0
e 200 142 25.0
e 200 226 21.0
e 208 220 44.0
e 208 133 61.0
e 208 204 7.0
e 208 205 50.0
e 208 47 6.0
e 208 108 87.0
e 208 23 81.0
e 211 93 22.0
e 211 17 95.0
e 211 119 35.0
e 211 20 1.0
e 211 50 9.0
e 211 205 27.0
e 211 256 56.0
e 211 174 42.0
e 211 121 41.0
e 211 62 91.0
e 211 120 47.0
e 211 83 94.0
e 211 51 49.0
e 212 105 87.0
e 212 112 73.0
e 212 247 71.0
e 212 223 57.0
e 212 290 14.0
e 212 21 12.0
e 212 206 78.0
e 212 192 50.0
e 212 22 81.0
e 212 50 34.0
e 216 228 42.0
e 216 166 11.0
e 216 76 14.0
e 216 262 12.0
e 218 295 77.0
e 221 55 9.0
e 221 106 58.0
e 221 140 37.0
e 221 114 6.0
e 221 24 60.0
e 221 173 25.0
e 221 71 93.0
e 221 98 100.0
e 221 51 75.0
e 221 206 25.0
e 221 54 44.0
e 221 99 35.0
e 221 56 20.0
e 221 263 66.0
e 221 289 49.0
e 221 168 32.0
e 222 300 25.0
e 222 157 14.0
e 227 51 4.0
e 229 127 44.0
e 229 94 65.0
e 229 201 66.0
e 229 71 29.0
e 229 208 7.0
e 229 72 15.0
e 229 248 87.0
e 229 55 6.0
e 229 186 99.0
e 229 227 6.0
e 229 204 50.0
e 229 56 78.0
e 229 64 99.0
e 229 65 83.0
e 229 195 60.0
e 232 55 9.0
e 232 130 22.0
e 232 80 81.0
e 232 65 42.0
e 232 64 10.0
e 232 72 40.0
e 232 74 80.0
e 232 198 94.0
e 232 84 89.0
e 232 131 25.0
e 232 270 48.0
e 232 78 40.0
e 232 75 86.0
e 232 76 40.0
e 232 77 39.0
e 232 311 68.0
e 235 240 43.0
e 235 163 77.0
e 235 65 29.0
e 235 72 6.0
e 235 100 23.0
e 235 197 2.0
e 235 113 40.0
e 235 274 86.0
e 235 239 43.0
e 235 233 13.0
e 235 288 20.0
e 235 159 92.0
e 235 270 66.0
e 245 64 87.0
e 245 77 44.0
e 245 264 29.0
e 245 235 26.0
e 245 78 18.0
e 245 227 77.0
e 245 318 75.0
e 245 209 90.0
e 247 168 57.0
e 249 237 27.0
e 249 255 75.0
e 249 179 47.0
e 255 264 48.0
e 255 134 77.0
e 255 195 69.0
e 255 200 36.0
e 255 162 20.0
e 255 270 10.0
e 255 271 89.0
e 255 164 4.0
e 255 148 67.0
e 255 273 48.0
e 255 99 51.0
e 255 80 88.0
e 255 81 47.0
e 255 173 99.0
e 255 231 6.0
e 264 252 72.0
e 264 270 37.0
e 264 164 77.0
e 264 188 56.0
e 264 273 10.0
e 264 289 58.0
e 264 133 95.0
e 264 134 67.0
e 264 120 44.0
e 271 282 60.0
e 271 140 84.0
e 271 80 69.0
e 271 194 51.0
e 271 81 51.0
e 271 82 82.0
e 271 315 16.0
e 271 84 39.0
e 271 303 90.0
e 271 235 35.0
e 271 186 53.0
e 271 85 40.0
e 271 86 19.0
e 271 91 38.0
e 275 81 32.0
e 275 184 19.0
e 275 165 40.0
e 275 140 84.0
e 275 82 14.0
e 275 142 11.0
e 275 208 19.0
e 275 251 36.0
e 275 186 58.0
e 275 201 11.0
e 275 270 19.0
e 275 85 69.0
e 275 92 61.0
e 281 124 44.0
e 281 82 39.0
e 281 133 10.0
e 281 228 6.0
e 281 271 91.0
e 281 237 22.0
e 281 227 73.0
e 281 180 80.0
e 281 141 32.0
e 281 229 26.0
e 281 309 38.0
e 281 193 91.0
e 281 86 16.0
e 281 87 77.0
e 281 88 90.0
e 283 88 10.0
e 283 176 7.0
e 285 249 26.0
e 285 88 55.0
e 285 278 96.0
e 285 271 72.0
e 285 102 35.0
e 285 229 66.0
e 285 89 23.0
e 285 304 5.0
e 285 149 26.0
e 285 92 26.0
e 285 93 20.0
e 285 311 25.0
e 285 94 38.0
e 286 143 9.0
e 291 89 28.0
e 291 290 70.0
e 291 109 34.0
e 291 94 90.0
e 291 95 40.0
e 291 317 53.0
e 291 301 7.0
e 291 134 68.0
e 291 296 5.0
e 291 96 36.0
e 291 241 54.0
e 291 98 55.0
e 291 155 71.0
e 292 274 7.0
e 292 264 92.0
e 292 271 78.0
e 292 121 28.0
e 292 144 94.0
e 292 115 88.0
e 292 89 7.0
e 292 194 85.0
e 292 311 69.0
e 292 212 87.0
e 292 145 5.0
e 292 95 35.0
e 292 273 58.0
e 292 196 56.0
e 293 98 28.0
e 293 100 95.0
e 293 113 83.0
e 293 101 35.0
e 293 104 2.0
e 293 107 40.0
e 293 302 80.0
e 293 144 62.0
e 293 109 59.0
e 293 264 5.0
e 293 128 51.0
e 293 124 1.0
e 295 296 76.0
e 295 256 60.0
e 295 145 16.0
e 295 224 27.0
e 295 166 58.0
e 295 174 68.0
e 295 292 25.0
e 295 160 64.0
e 295 146 45.0
e 295 275 87.0
e 295 245 34.0
e 295 280 59.0
e 295 192 29.0
e 295 196 73.0
e 298 197 1.0
e 298 302 40.0
e 298 101 7.0
e 298 229 26.0
e 298 305 50.0
e 298 218 29.0
e 298 303 23.0
e 304 101 56.0
e 304 161 32.0
e 304 103 69.0
e 304 314 50.0
e 304 104 16.0
e 304 264 53.0
e 304 107 64.0
e 304 228 86.0
e 304 245 95.0
e 304 146 47.0
e 305 103 35.0
e 307 115 50.0
e 307 104 95.0
e 310 107 42.0
e 310 109 34.0
e 310 255 28.0
e 310 146 19.0
e 310 291 100.0
e 310 111 34.0
e 310 113 56.0
e 310 206 9.0
e 310 117 16.0
e 310 121 56.0
e 310 122 46.0
e 310 123 13.0
e 310 125 51.0
e 310 126 53.0
e 311 319 19.0
e 311 123 64.0
e 311 117 94.0
e 311 125 49.0
e 311 175 20.0
e 311 280 48.0
e 311 215 84.0
e 311 126 96.0
e 311 197 49.0
e 311 147 41.0
e 311 208 25.0
e 311 210 81.0
e 315 183 45.0
e 315 177 44.0
e 315 156 58.0
e 315 147 97.0
e 315 149 33.0
e 315 198 29.0
e 315 155 30.0
e 315 275 60.0
e 315 283 72.0
e 315 280 77.0
e 315 281 13.0
e 315 157 55.0
e 317 149 36.0
e 317 155 98.0
e 317 230 28.0
e 317 316 32.0
e 317 157 57.0
e 317 158 13.0
e 317 159 92.0
e 317 275 29.0
e 317 281 10.0
e 317 161 5.0
e 317 211 16.0
e 317 162 55.0
e 317 293 30.0
e 317 163 68.0
e 317 165 40.0
e 317 216 33.0
e 319 177 1.0
e 319 158 1.0
